159
100000
47898
28235
12388
87765
29977
27352
17248
43420
17102
24915
33408
39729
21423
31893
57239
3822
48944
35156
26514
62763
56403
26948
57585
45421
64797
2486
16437
2009
49445
45012
43217
31035
17102
41483
43035
39080
16419
87887
97514
70567
7252
30294
37540
35173
20414
22601
83581
80791
17501
7912
81984
5446
61541
6789
18582
13602
54875
72648
36306
9896
17365
81418
43617
24005
9018
51049
48951
3095
51056
36047
30719
14566
18016
12037
1463
3508
55660
37161
71765
58350
51629
2825
71464
76
41650
44340
24161
19209
22255
58517
58680
31527
28536
58013
32483
92134
177
73052
9171
27428
13959
55976
23028
13855
11652
3144
32191
11932
52102
13633
17527
20759
28797
14554
51080
82635
48380
54176
12039
77623
98537
8896
35203
36992
89463
41881
28075
36509
13232
63956
47047
10537
85446
56965
54579
30815
54988
36044
14269
31430
52036
63694
86398
15111
38671
11946
3042
69281
7866
69747
58119
54694
56558
71925
45481
22377
42415
3815
40924
